; CASCADE-V attribution fairness proof certificate
; receipt_id: output_005
; n_sources: 80

(set-logic QF_LRA)

(declare-const w_0 Real)
(declare-const w_1 Real)
(declare-const w_2 Real)
(declare-const w_3 Real)
(declare-const w_4 Real)
(declare-const w_5 Real)
(declare-const w_6 Real)
(declare-const w_7 Real)
(declare-const w_8 Real)
(declare-const w_9 Real)
(declare-const w_10 Real)
(declare-const w_11 Real)
(declare-const w_12 Real)
(declare-const w_13 Real)
(declare-const w_14 Real)
(declare-const w_15 Real)
(declare-const w_16 Real)
(declare-const w_17 Real)
(declare-const w_18 Real)
(declare-const w_19 Real)
(declare-const w_20 Real)
(declare-const w_21 Real)
(declare-const w_22 Real)
(declare-const w_23 Real)
(declare-const w_24 Real)
(declare-const w_25 Real)
(declare-const w_26 Real)
(declare-const w_27 Real)
(declare-const w_28 Real)
(declare-const w_29 Real)
(declare-const w_30 Real)
(declare-const w_31 Real)
(declare-const w_32 Real)
(declare-const w_33 Real)
(declare-const w_34 Real)
(declare-const w_35 Real)
(declare-const w_36 Real)
(declare-const w_37 Real)
(declare-const w_38 Real)
(declare-const w_39 Real)
(declare-const w_40 Real)
(declare-const w_41 Real)
(declare-const w_42 Real)
(declare-const w_43 Real)
(declare-const w_44 Real)
(declare-const w_45 Real)
(declare-const w_46 Real)
(declare-const w_47 Real)
(declare-const w_48 Real)
(declare-const w_49 Real)
(declare-const w_50 Real)
(declare-const w_51 Real)
(declare-const w_52 Real)
(declare-const w_53 Real)
(declare-const w_54 Real)
(declare-const w_55 Real)
(declare-const w_56 Real)
(declare-const w_57 Real)
(declare-const w_58 Real)
(declare-const w_59 Real)
(declare-const w_60 Real)
(declare-const w_61 Real)
(declare-const w_62 Real)
(declare-const w_63 Real)
(declare-const w_64 Real)
(declare-const w_65 Real)
(declare-const w_66 Real)
(declare-const w_67 Real)
(declare-const w_68 Real)
(declare-const w_69 Real)
(declare-const w_70 Real)
(declare-const w_71 Real)
(declare-const w_72 Real)
(declare-const w_73 Real)
(declare-const w_74 Real)
(declare-const w_75 Real)
(declare-const w_76 Real)
(declare-const w_77 Real)
(declare-const w_78 Real)
(declare-const w_79 Real)

; --- weight values ---
(assert (= w_0 0.0000000000))
(assert (= w_1 0.0586748638))
(assert (= w_2 0.0000000000))
(assert (= w_3 0.0000000000))
(assert (= w_4 0.0000000000))
(assert (= w_5 0.0252007914))
(assert (= w_6 0.0269709020))
(assert (= w_7 0.0268864703))
(assert (= w_8 0.0528493154))
(assert (= w_9 0.0528567744))
(assert (= w_10 0.0523998352))
(assert (= w_11 0.0000000000))
(assert (= w_12 0.0531280459))
(assert (= w_13 0.0000000000))
(assert (= w_14 0.0533892772))
(assert (= w_15 0.0531400650))
(assert (= w_16 0.0523618422))
(assert (= w_17 0.0525561355))
(assert (= w_18 0.0532353364))
(assert (= w_19 0.0000000000))
(assert (= w_20 0.0000000000))
(assert (= w_21 0.0000000000))
(assert (= w_22 0.0000000000))
(assert (= w_23 0.1057819388))
(assert (= w_24 0.0171748615))
(assert (= w_25 0.0155391605))
(assert (= w_26 0.0169038986))
(assert (= w_27 0.0158111601))
(assert (= w_28 0.0161037008))
(assert (= w_29 0.0184381985))
(assert (= w_30 0.0000000000))
(assert (= w_31 0.0151743573))
(assert (= w_32 0.0185600102))
(assert (= w_33 0.0220696094))
(assert (= w_34 0.0171740664))
(assert (= w_35 0.0154134530))
(assert (= w_36 0.0196065998))
(assert (= w_37 0.0000000000))
(assert (= w_38 0.0000000000))
(assert (= w_39 0.0000000000))
(assert (= w_40 0.0000000000))
(assert (= w_41 0.0725993305))
(assert (= w_42 0.0000000000))
(assert (= w_43 0.0000000000))
(assert (= w_44 0.0000000000))
(assert (= w_45 0.0000000000))
(assert (= w_46 0.0000000000))
(assert (= w_47 0.0000000000))
(assert (= w_48 0.0000000000))
(assert (= w_49 0.0000000000))
(assert (= w_50 0.0000000000))
(assert (= w_51 0.0000000000))
(assert (= w_52 0.0000000000))
(assert (= w_53 0.0000000000))
(assert (= w_54 0.0000000000))
(assert (= w_55 0.0000000000))
(assert (= w_56 0.0000000000))
(assert (= w_57 0.0000000000))
(assert (= w_58 0.0000000000))
(assert (= w_59 0.0000000000))
(assert (= w_60 0.0000000000))
(assert (= w_61 0.0000000000))
(assert (= w_62 0.0000000000))
(assert (= w_63 0.0000000000))
(assert (= w_64 0.0000000000))
(assert (= w_65 0.0000000000))
(assert (= w_66 0.0000000000))
(assert (= w_67 0.0000000000))
(assert (= w_68 0.0000000000))
(assert (= w_69 0.0000000000))
(assert (= w_70 0.0000000000))
(assert (= w_71 0.0000000000))
(assert (= w_72 0.0000000000))
(assert (= w_73 0.0000000000))
(assert (= w_74 0.0000000000))
(assert (= w_75 0.0000000000))
(assert (= w_76 0.0000000000))
(assert (= w_77 0.0000000000))
(assert (= w_78 0.0000000000))
(assert (= w_79 0.0000000000))

; --- efficiency: sum(weights) ≈ 1.000000 ---
(assert (<= (- (+ w_0 w_1 w_2 w_3 w_4 w_5 w_6 w_7 w_8 w_9 w_10 w_11 w_12 w_13 w_14 w_15 w_16 w_17 w_18 w_19 w_20 w_21 w_22 w_23 w_24 w_25 w_26 w_27 w_28 w_29 w_30 w_31 w_32 w_33 w_34 w_35 w_36 w_37 w_38 w_39 w_40 w_41 w_42 w_43 w_44 w_45 w_46 w_47 w_48 w_49 w_50 w_51 w_52 w_53 w_54 w_55 w_56 w_57 w_58 w_59 w_60 w_61 w_62 w_63 w_64 w_65 w_66 w_67 w_68 w_69 w_70 w_71 w_72 w_73 w_74 w_75 w_76 w_77 w_78 w_79) 1.0000000000) 0.001))
(assert (>= (- (+ w_0 w_1 w_2 w_3 w_4 w_5 w_6 w_7 w_8 w_9 w_10 w_11 w_12 w_13 w_14 w_15 w_16 w_17 w_18 w_19 w_20 w_21 w_22 w_23 w_24 w_25 w_26 w_27 w_28 w_29 w_30 w_31 w_32 w_33 w_34 w_35 w_36 w_37 w_38 w_39 w_40 w_41 w_42 w_43 w_44 w_45 w_46 w_47 w_48 w_49 w_50 w_51 w_52 w_53 w_54 w_55 w_56 w_57 w_58 w_59 w_60 w_61 w_62 w_63 w_64 w_65 w_66 w_67 w_68 w_69 w_70 w_71 w_72 w_73 w_74 w_75 w_76 w_77 w_78 w_79) 1.0000000000) (- 0.001)))

; --- symmetry: similar sources have equal weights ---
(assert (<= (- w_6 w_7) 0.001))
(assert (>= (- w_6 w_7) (- 0.001)))
(assert (<= (- w_8 w_9) 0.001))
(assert (>= (- w_8 w_9) (- 0.001)))
(assert (<= (- w_8 w_10) 0.001))
(assert (>= (- w_8 w_10) (- 0.001)))
(assert (<= (- w_8 w_12) 0.001))
(assert (>= (- w_8 w_12) (- 0.001)))
(assert (<= (- w_8 w_14) 0.001))
(assert (>= (- w_8 w_14) (- 0.001)))
(assert (<= (- w_8 w_15) 0.001))
(assert (>= (- w_8 w_15) (- 0.001)))
(assert (<= (- w_8 w_16) 0.001))
(assert (>= (- w_8 w_16) (- 0.001)))
(assert (<= (- w_8 w_17) 0.001))
(assert (>= (- w_8 w_17) (- 0.001)))
(assert (<= (- w_8 w_18) 0.001))
(assert (>= (- w_8 w_18) (- 0.001)))
(assert (<= (- w_9 w_10) 0.001))
(assert (>= (- w_9 w_10) (- 0.001)))
(assert (<= (- w_9 w_12) 0.001))
(assert (>= (- w_9 w_12) (- 0.001)))
(assert (<= (- w_9 w_14) 0.001))
(assert (>= (- w_9 w_14) (- 0.001)))
(assert (<= (- w_9 w_15) 0.001))
(assert (>= (- w_9 w_15) (- 0.001)))
(assert (<= (- w_9 w_16) 0.001))
(assert (>= (- w_9 w_16) (- 0.001)))
(assert (<= (- w_9 w_17) 0.001))
(assert (>= (- w_9 w_17) (- 0.001)))
(assert (<= (- w_9 w_18) 0.001))
(assert (>= (- w_9 w_18) (- 0.001)))
(assert (<= (- w_10 w_12) 0.001))
(assert (>= (- w_10 w_12) (- 0.001)))
(assert (<= (- w_10 w_14) 0.001))
(assert (>= (- w_10 w_14) (- 0.001)))
(assert (<= (- w_10 w_15) 0.001))
(assert (>= (- w_10 w_15) (- 0.001)))
(assert (<= (- w_10 w_16) 0.001))
(assert (>= (- w_10 w_16) (- 0.001)))
(assert (<= (- w_10 w_17) 0.001))
(assert (>= (- w_10 w_17) (- 0.001)))
(assert (<= (- w_10 w_18) 0.001))
(assert (>= (- w_10 w_18) (- 0.001)))
(assert (<= (- w_12 w_14) 0.001))
(assert (>= (- w_12 w_14) (- 0.001)))
(assert (<= (- w_12 w_15) 0.001))
(assert (>= (- w_12 w_15) (- 0.001)))
(assert (<= (- w_12 w_16) 0.001))
(assert (>= (- w_12 w_16) (- 0.001)))
(assert (<= (- w_12 w_17) 0.001))
(assert (>= (- w_12 w_17) (- 0.001)))
(assert (<= (- w_12 w_18) 0.001))
(assert (>= (- w_12 w_18) (- 0.001)))
(assert (<= (- w_14 w_15) 0.001))
(assert (>= (- w_14 w_15) (- 0.001)))
(assert (<= (- w_14 w_16) 0.001))
(assert (>= (- w_14 w_16) (- 0.001)))
(assert (<= (- w_14 w_17) 0.001))
(assert (>= (- w_14 w_17) (- 0.001)))
(assert (<= (- w_14 w_18) 0.001))
(assert (>= (- w_14 w_18) (- 0.001)))
(assert (<= (- w_15 w_16) 0.001))
(assert (>= (- w_15 w_16) (- 0.001)))
(assert (<= (- w_15 w_17) 0.001))
(assert (>= (- w_15 w_17) (- 0.001)))
(assert (<= (- w_15 w_18) 0.001))
(assert (>= (- w_15 w_18) (- 0.001)))
(assert (<= (- w_16 w_17) 0.001))
(assert (>= (- w_16 w_17) (- 0.001)))
(assert (<= (- w_16 w_18) 0.001))
(assert (>= (- w_16 w_18) (- 0.001)))
(assert (<= (- w_17 w_18) 0.001))
(assert (>= (- w_17 w_18) (- 0.001)))
(assert (<= (- w_24 w_25) 0.001))
(assert (>= (- w_24 w_25) (- 0.001)))
(assert (<= (- w_24 w_26) 0.001))
(assert (>= (- w_24 w_26) (- 0.001)))
(assert (<= (- w_24 w_27) 0.001))
(assert (>= (- w_24 w_27) (- 0.001)))
(assert (<= (- w_24 w_28) 0.001))
(assert (>= (- w_24 w_28) (- 0.001)))
(assert (<= (- w_24 w_29) 0.001))
(assert (>= (- w_24 w_29) (- 0.001)))
(assert (<= (- w_24 w_30) 0.001))
(assert (>= (- w_24 w_30) (- 0.001)))
(assert (<= (- w_24 w_31) 0.001))
(assert (>= (- w_24 w_31) (- 0.001)))
(assert (<= (- w_24 w_32) 0.001))
(assert (>= (- w_24 w_32) (- 0.001)))
(assert (<= (- w_24 w_33) 0.001))
(assert (>= (- w_24 w_33) (- 0.001)))
(assert (<= (- w_24 w_34) 0.001))
(assert (>= (- w_24 w_34) (- 0.001)))
(assert (<= (- w_24 w_35) 0.001))
(assert (>= (- w_24 w_35) (- 0.001)))
(assert (<= (- w_24 w_36) 0.001))
(assert (>= (- w_24 w_36) (- 0.001)))
(assert (<= (- w_25 w_26) 0.001))
(assert (>= (- w_25 w_26) (- 0.001)))
(assert (<= (- w_25 w_27) 0.001))
(assert (>= (- w_25 w_27) (- 0.001)))
(assert (<= (- w_25 w_28) 0.001))
(assert (>= (- w_25 w_28) (- 0.001)))
(assert (<= (- w_25 w_29) 0.001))
(assert (>= (- w_25 w_29) (- 0.001)))
(assert (<= (- w_25 w_30) 0.001))
(assert (>= (- w_25 w_30) (- 0.001)))
(assert (<= (- w_25 w_31) 0.001))
(assert (>= (- w_25 w_31) (- 0.001)))
(assert (<= (- w_25 w_32) 0.001))
(assert (>= (- w_25 w_32) (- 0.001)))
(assert (<= (- w_25 w_33) 0.001))
(assert (>= (- w_25 w_33) (- 0.001)))
(assert (<= (- w_25 w_34) 0.001))
(assert (>= (- w_25 w_34) (- 0.001)))
(assert (<= (- w_25 w_35) 0.001))
(assert (>= (- w_25 w_35) (- 0.001)))
(assert (<= (- w_25 w_36) 0.001))
(assert (>= (- w_25 w_36) (- 0.001)))
(assert (<= (- w_26 w_27) 0.001))
(assert (>= (- w_26 w_27) (- 0.001)))
(assert (<= (- w_26 w_28) 0.001))
(assert (>= (- w_26 w_28) (- 0.001)))
(assert (<= (- w_26 w_29) 0.001))
(assert (>= (- w_26 w_29) (- 0.001)))
(assert (<= (- w_26 w_30) 0.001))
(assert (>= (- w_26 w_30) (- 0.001)))
(assert (<= (- w_26 w_31) 0.001))
(assert (>= (- w_26 w_31) (- 0.001)))
(assert (<= (- w_26 w_32) 0.001))
(assert (>= (- w_26 w_32) (- 0.001)))
(assert (<= (- w_26 w_33) 0.001))
(assert (>= (- w_26 w_33) (- 0.001)))
(assert (<= (- w_26 w_34) 0.001))
(assert (>= (- w_26 w_34) (- 0.001)))
(assert (<= (- w_26 w_35) 0.001))
(assert (>= (- w_26 w_35) (- 0.001)))
(assert (<= (- w_26 w_36) 0.001))
(assert (>= (- w_26 w_36) (- 0.001)))
(assert (<= (- w_27 w_28) 0.001))
(assert (>= (- w_27 w_28) (- 0.001)))
(assert (<= (- w_27 w_29) 0.001))
(assert (>= (- w_27 w_29) (- 0.001)))
(assert (<= (- w_27 w_30) 0.001))
(assert (>= (- w_27 w_30) (- 0.001)))
(assert (<= (- w_27 w_31) 0.001))
(assert (>= (- w_27 w_31) (- 0.001)))
(assert (<= (- w_27 w_32) 0.001))
(assert (>= (- w_27 w_32) (- 0.001)))
(assert (<= (- w_27 w_33) 0.001))
(assert (>= (- w_27 w_33) (- 0.001)))
(assert (<= (- w_27 w_34) 0.001))
(assert (>= (- w_27 w_34) (- 0.001)))
(assert (<= (- w_27 w_35) 0.001))
(assert (>= (- w_27 w_35) (- 0.001)))
(assert (<= (- w_27 w_36) 0.001))
(assert (>= (- w_27 w_36) (- 0.001)))
(assert (<= (- w_28 w_29) 0.001))
(assert (>= (- w_28 w_29) (- 0.001)))
(assert (<= (- w_28 w_30) 0.001))
(assert (>= (- w_28 w_30) (- 0.001)))
(assert (<= (- w_28 w_31) 0.001))
(assert (>= (- w_28 w_31) (- 0.001)))
(assert (<= (- w_28 w_32) 0.001))
(assert (>= (- w_28 w_32) (- 0.001)))
(assert (<= (- w_28 w_33) 0.001))
(assert (>= (- w_28 w_33) (- 0.001)))
(assert (<= (- w_28 w_34) 0.001))
(assert (>= (- w_28 w_34) (- 0.001)))
(assert (<= (- w_28 w_35) 0.001))
(assert (>= (- w_28 w_35) (- 0.001)))
(assert (<= (- w_28 w_36) 0.001))
(assert (>= (- w_28 w_36) (- 0.001)))
(assert (<= (- w_29 w_30) 0.001))
(assert (>= (- w_29 w_30) (- 0.001)))
(assert (<= (- w_29 w_31) 0.001))
(assert (>= (- w_29 w_31) (- 0.001)))
(assert (<= (- w_29 w_32) 0.001))
(assert (>= (- w_29 w_32) (- 0.001)))
(assert (<= (- w_29 w_33) 0.001))
(assert (>= (- w_29 w_33) (- 0.001)))
(assert (<= (- w_29 w_34) 0.001))
(assert (>= (- w_29 w_34) (- 0.001)))
(assert (<= (- w_29 w_35) 0.001))
(assert (>= (- w_29 w_35) (- 0.001)))
(assert (<= (- w_29 w_36) 0.001))
(assert (>= (- w_29 w_36) (- 0.001)))
(assert (<= (- w_30 w_31) 0.001))
(assert (>= (- w_30 w_31) (- 0.001)))
(assert (<= (- w_30 w_32) 0.001))
(assert (>= (- w_30 w_32) (- 0.001)))
(assert (<= (- w_30 w_33) 0.001))
(assert (>= (- w_30 w_33) (- 0.001)))
(assert (<= (- w_30 w_34) 0.001))
(assert (>= (- w_30 w_34) (- 0.001)))
(assert (<= (- w_30 w_35) 0.001))
(assert (>= (- w_30 w_35) (- 0.001)))
(assert (<= (- w_30 w_36) 0.001))
(assert (>= (- w_30 w_36) (- 0.001)))
(assert (<= (- w_31 w_32) 0.001))
(assert (>= (- w_31 w_32) (- 0.001)))
(assert (<= (- w_31 w_33) 0.001))
(assert (>= (- w_31 w_33) (- 0.001)))
(assert (<= (- w_31 w_34) 0.001))
(assert (>= (- w_31 w_34) (- 0.001)))
(assert (<= (- w_31 w_35) 0.001))
(assert (>= (- w_31 w_35) (- 0.001)))
(assert (<= (- w_31 w_36) 0.001))
(assert (>= (- w_31 w_36) (- 0.001)))
(assert (<= (- w_32 w_33) 0.001))
(assert (>= (- w_32 w_33) (- 0.001)))
(assert (<= (- w_32 w_34) 0.001))
(assert (>= (- w_32 w_34) (- 0.001)))
(assert (<= (- w_32 w_35) 0.001))
(assert (>= (- w_32 w_35) (- 0.001)))
(assert (<= (- w_32 w_36) 0.001))
(assert (>= (- w_32 w_36) (- 0.001)))
(assert (<= (- w_33 w_34) 0.001))
(assert (>= (- w_33 w_34) (- 0.001)))
(assert (<= (- w_33 w_35) 0.001))
(assert (>= (- w_33 w_35) (- 0.001)))
(assert (<= (- w_33 w_36) 0.001))
(assert (>= (- w_33 w_36) (- 0.001)))
(assert (<= (- w_34 w_35) 0.001))
(assert (>= (- w_34 w_35) (- 0.001)))
(assert (<= (- w_34 w_36) 0.001))
(assert (>= (- w_34 w_36) (- 0.001)))
(assert (<= (- w_35 w_36) 0.001))
(assert (>= (- w_35 w_36) (- 0.001)))
(assert (<= (- w_37 w_38) 0.001))
(assert (>= (- w_37 w_38) (- 0.001)))
(assert (<= (- w_37 w_39) 0.001))
(assert (>= (- w_37 w_39) (- 0.001)))
(assert (<= (- w_37 w_40) 0.001))
(assert (>= (- w_37 w_40) (- 0.001)))
(assert (<= (- w_37 w_42) 0.001))
(assert (>= (- w_37 w_42) (- 0.001)))
(assert (<= (- w_37 w_43) 0.001))
(assert (>= (- w_37 w_43) (- 0.001)))
(assert (<= (- w_37 w_44) 0.001))
(assert (>= (- w_37 w_44) (- 0.001)))
(assert (<= (- w_37 w_45) 0.001))
(assert (>= (- w_37 w_45) (- 0.001)))
(assert (<= (- w_37 w_46) 0.001))
(assert (>= (- w_37 w_46) (- 0.001)))
(assert (<= (- w_37 w_47) 0.001))
(assert (>= (- w_37 w_47) (- 0.001)))
(assert (<= (- w_37 w_48) 0.001))
(assert (>= (- w_37 w_48) (- 0.001)))
(assert (<= (- w_38 w_39) 0.001))
(assert (>= (- w_38 w_39) (- 0.001)))
(assert (<= (- w_38 w_40) 0.001))
(assert (>= (- w_38 w_40) (- 0.001)))
(assert (<= (- w_38 w_42) 0.001))
(assert (>= (- w_38 w_42) (- 0.001)))
(assert (<= (- w_38 w_43) 0.001))
(assert (>= (- w_38 w_43) (- 0.001)))
(assert (<= (- w_38 w_44) 0.001))
(assert (>= (- w_38 w_44) (- 0.001)))
(assert (<= (- w_38 w_45) 0.001))
(assert (>= (- w_38 w_45) (- 0.001)))
(assert (<= (- w_38 w_46) 0.001))
(assert (>= (- w_38 w_46) (- 0.001)))
(assert (<= (- w_38 w_47) 0.001))
(assert (>= (- w_38 w_47) (- 0.001)))
(assert (<= (- w_38 w_48) 0.001))
(assert (>= (- w_38 w_48) (- 0.001)))
(assert (<= (- w_39 w_40) 0.001))
(assert (>= (- w_39 w_40) (- 0.001)))
(assert (<= (- w_39 w_42) 0.001))
(assert (>= (- w_39 w_42) (- 0.001)))
(assert (<= (- w_39 w_43) 0.001))
(assert (>= (- w_39 w_43) (- 0.001)))
(assert (<= (- w_39 w_44) 0.001))
(assert (>= (- w_39 w_44) (- 0.001)))
(assert (<= (- w_39 w_45) 0.001))
(assert (>= (- w_39 w_45) (- 0.001)))
(assert (<= (- w_39 w_46) 0.001))
(assert (>= (- w_39 w_46) (- 0.001)))
(assert (<= (- w_39 w_47) 0.001))
(assert (>= (- w_39 w_47) (- 0.001)))
(assert (<= (- w_39 w_48) 0.001))
(assert (>= (- w_39 w_48) (- 0.001)))
(assert (<= (- w_40 w_42) 0.001))
(assert (>= (- w_40 w_42) (- 0.001)))
(assert (<= (- w_40 w_43) 0.001))
(assert (>= (- w_40 w_43) (- 0.001)))
(assert (<= (- w_40 w_44) 0.001))
(assert (>= (- w_40 w_44) (- 0.001)))
(assert (<= (- w_40 w_45) 0.001))
(assert (>= (- w_40 w_45) (- 0.001)))
(assert (<= (- w_40 w_46) 0.001))
(assert (>= (- w_40 w_46) (- 0.001)))
(assert (<= (- w_40 w_47) 0.001))
(assert (>= (- w_40 w_47) (- 0.001)))
(assert (<= (- w_40 w_48) 0.001))
(assert (>= (- w_40 w_48) (- 0.001)))
(assert (<= (- w_42 w_43) 0.001))
(assert (>= (- w_42 w_43) (- 0.001)))
(assert (<= (- w_42 w_44) 0.001))
(assert (>= (- w_42 w_44) (- 0.001)))
(assert (<= (- w_42 w_45) 0.001))
(assert (>= (- w_42 w_45) (- 0.001)))
(assert (<= (- w_42 w_46) 0.001))
(assert (>= (- w_42 w_46) (- 0.001)))
(assert (<= (- w_42 w_47) 0.001))
(assert (>= (- w_42 w_47) (- 0.001)))
(assert (<= (- w_42 w_48) 0.001))
(assert (>= (- w_42 w_48) (- 0.001)))
(assert (<= (- w_43 w_44) 0.001))
(assert (>= (- w_43 w_44) (- 0.001)))
(assert (<= (- w_43 w_45) 0.001))
(assert (>= (- w_43 w_45) (- 0.001)))
(assert (<= (- w_43 w_46) 0.001))
(assert (>= (- w_43 w_46) (- 0.001)))
(assert (<= (- w_43 w_47) 0.001))
(assert (>= (- w_43 w_47) (- 0.001)))
(assert (<= (- w_43 w_48) 0.001))
(assert (>= (- w_43 w_48) (- 0.001)))
(assert (<= (- w_44 w_45) 0.001))
(assert (>= (- w_44 w_45) (- 0.001)))
(assert (<= (- w_44 w_46) 0.001))
(assert (>= (- w_44 w_46) (- 0.001)))
(assert (<= (- w_44 w_47) 0.001))
(assert (>= (- w_44 w_47) (- 0.001)))
(assert (<= (- w_44 w_48) 0.001))
(assert (>= (- w_44 w_48) (- 0.001)))
(assert (<= (- w_45 w_46) 0.001))
(assert (>= (- w_45 w_46) (- 0.001)))
(assert (<= (- w_45 w_47) 0.001))
(assert (>= (- w_45 w_47) (- 0.001)))
(assert (<= (- w_45 w_48) 0.001))
(assert (>= (- w_45 w_48) (- 0.001)))
(assert (<= (- w_46 w_47) 0.001))
(assert (>= (- w_46 w_47) (- 0.001)))
(assert (<= (- w_46 w_48) 0.001))
(assert (>= (- w_46 w_48) (- 0.001)))
(assert (<= (- w_47 w_48) 0.001))
(assert (>= (- w_47 w_48) (- 0.001)))
(assert (<= (- w_53 w_54) 0.001))
(assert (>= (- w_53 w_54) (- 0.001)))
(assert (<= (- w_53 w_55) 0.001))
(assert (>= (- w_53 w_55) (- 0.001)))
(assert (<= (- w_53 w_56) 0.001))
(assert (>= (- w_53 w_56) (- 0.001)))
(assert (<= (- w_53 w_57) 0.001))
(assert (>= (- w_53 w_57) (- 0.001)))
(assert (<= (- w_53 w_58) 0.001))
(assert (>= (- w_53 w_58) (- 0.001)))
(assert (<= (- w_53 w_59) 0.001))
(assert (>= (- w_53 w_59) (- 0.001)))
(assert (<= (- w_53 w_60) 0.001))
(assert (>= (- w_53 w_60) (- 0.001)))
(assert (<= (- w_53 w_61) 0.001))
(assert (>= (- w_53 w_61) (- 0.001)))
(assert (<= (- w_53 w_62) 0.001))
(assert (>= (- w_53 w_62) (- 0.001)))
(assert (<= (- w_53 w_63) 0.001))
(assert (>= (- w_53 w_63) (- 0.001)))
(assert (<= (- w_53 w_64) 0.001))
(assert (>= (- w_53 w_64) (- 0.001)))
(assert (<= (- w_54 w_55) 0.001))
(assert (>= (- w_54 w_55) (- 0.001)))
(assert (<= (- w_54 w_56) 0.001))
(assert (>= (- w_54 w_56) (- 0.001)))
(assert (<= (- w_54 w_57) 0.001))
(assert (>= (- w_54 w_57) (- 0.001)))
(assert (<= (- w_54 w_58) 0.001))
(assert (>= (- w_54 w_58) (- 0.001)))
(assert (<= (- w_54 w_59) 0.001))
(assert (>= (- w_54 w_59) (- 0.001)))
(assert (<= (- w_54 w_60) 0.001))
(assert (>= (- w_54 w_60) (- 0.001)))
(assert (<= (- w_54 w_61) 0.001))
(assert (>= (- w_54 w_61) (- 0.001)))
(assert (<= (- w_54 w_62) 0.001))
(assert (>= (- w_54 w_62) (- 0.001)))
(assert (<= (- w_54 w_63) 0.001))
(assert (>= (- w_54 w_63) (- 0.001)))
(assert (<= (- w_54 w_64) 0.001))
(assert (>= (- w_54 w_64) (- 0.001)))
(assert (<= (- w_55 w_56) 0.001))
(assert (>= (- w_55 w_56) (- 0.001)))
(assert (<= (- w_55 w_57) 0.001))
(assert (>= (- w_55 w_57) (- 0.001)))
(assert (<= (- w_55 w_58) 0.001))
(assert (>= (- w_55 w_58) (- 0.001)))
(assert (<= (- w_55 w_59) 0.001))
(assert (>= (- w_55 w_59) (- 0.001)))
(assert (<= (- w_55 w_60) 0.001))
(assert (>= (- w_55 w_60) (- 0.001)))
(assert (<= (- w_55 w_61) 0.001))
(assert (>= (- w_55 w_61) (- 0.001)))
(assert (<= (- w_55 w_62) 0.001))
(assert (>= (- w_55 w_62) (- 0.001)))
(assert (<= (- w_55 w_63) 0.001))
(assert (>= (- w_55 w_63) (- 0.001)))
(assert (<= (- w_55 w_64) 0.001))
(assert (>= (- w_55 w_64) (- 0.001)))
(assert (<= (- w_56 w_57) 0.001))
(assert (>= (- w_56 w_57) (- 0.001)))
(assert (<= (- w_56 w_58) 0.001))
(assert (>= (- w_56 w_58) (- 0.001)))
(assert (<= (- w_56 w_59) 0.001))
(assert (>= (- w_56 w_59) (- 0.001)))
(assert (<= (- w_56 w_60) 0.001))
(assert (>= (- w_56 w_60) (- 0.001)))
(assert (<= (- w_56 w_61) 0.001))
(assert (>= (- w_56 w_61) (- 0.001)))
(assert (<= (- w_56 w_62) 0.001))
(assert (>= (- w_56 w_62) (- 0.001)))
(assert (<= (- w_56 w_63) 0.001))
(assert (>= (- w_56 w_63) (- 0.001)))
(assert (<= (- w_56 w_64) 0.001))
(assert (>= (- w_56 w_64) (- 0.001)))
(assert (<= (- w_57 w_58) 0.001))
(assert (>= (- w_57 w_58) (- 0.001)))
(assert (<= (- w_57 w_59) 0.001))
(assert (>= (- w_57 w_59) (- 0.001)))
(assert (<= (- w_57 w_60) 0.001))
(assert (>= (- w_57 w_60) (- 0.001)))
(assert (<= (- w_57 w_61) 0.001))
(assert (>= (- w_57 w_61) (- 0.001)))
(assert (<= (- w_57 w_62) 0.001))
(assert (>= (- w_57 w_62) (- 0.001)))
(assert (<= (- w_57 w_63) 0.001))
(assert (>= (- w_57 w_63) (- 0.001)))
(assert (<= (- w_57 w_64) 0.001))
(assert (>= (- w_57 w_64) (- 0.001)))
(assert (<= (- w_58 w_59) 0.001))
(assert (>= (- w_58 w_59) (- 0.001)))
(assert (<= (- w_58 w_60) 0.001))
(assert (>= (- w_58 w_60) (- 0.001)))
(assert (<= (- w_58 w_61) 0.001))
(assert (>= (- w_58 w_61) (- 0.001)))
(assert (<= (- w_58 w_62) 0.001))
(assert (>= (- w_58 w_62) (- 0.001)))
(assert (<= (- w_58 w_63) 0.001))
(assert (>= (- w_58 w_63) (- 0.001)))
(assert (<= (- w_58 w_64) 0.001))
(assert (>= (- w_58 w_64) (- 0.001)))
(assert (<= (- w_59 w_60) 0.001))
(assert (>= (- w_59 w_60) (- 0.001)))
(assert (<= (- w_59 w_61) 0.001))
(assert (>= (- w_59 w_61) (- 0.001)))
(assert (<= (- w_59 w_62) 0.001))
(assert (>= (- w_59 w_62) (- 0.001)))
(assert (<= (- w_59 w_63) 0.001))
(assert (>= (- w_59 w_63) (- 0.001)))
(assert (<= (- w_59 w_64) 0.001))
(assert (>= (- w_59 w_64) (- 0.001)))
(assert (<= (- w_60 w_61) 0.001))
(assert (>= (- w_60 w_61) (- 0.001)))
(assert (<= (- w_60 w_62) 0.001))
(assert (>= (- w_60 w_62) (- 0.001)))
(assert (<= (- w_60 w_63) 0.001))
(assert (>= (- w_60 w_63) (- 0.001)))
(assert (<= (- w_60 w_64) 0.001))
(assert (>= (- w_60 w_64) (- 0.001)))
(assert (<= (- w_61 w_62) 0.001))
(assert (>= (- w_61 w_62) (- 0.001)))
(assert (<= (- w_61 w_63) 0.001))
(assert (>= (- w_61 w_63) (- 0.001)))
(assert (<= (- w_61 w_64) 0.001))
(assert (>= (- w_61 w_64) (- 0.001)))
(assert (<= (- w_62 w_63) 0.001))
(assert (>= (- w_62 w_63) (- 0.001)))
(assert (<= (- w_62 w_64) 0.001))
(assert (>= (- w_62 w_64) (- 0.001)))
(assert (<= (- w_63 w_64) 0.001))
(assert (>= (- w_63 w_64) (- 0.001)))
(assert (<= (- w_65 w_66) 0.001))
(assert (>= (- w_65 w_66) (- 0.001)))
(assert (<= (- w_65 w_67) 0.001))
(assert (>= (- w_65 w_67) (- 0.001)))
(assert (<= (- w_65 w_68) 0.001))
(assert (>= (- w_65 w_68) (- 0.001)))
(assert (<= (- w_65 w_69) 0.001))
(assert (>= (- w_65 w_69) (- 0.001)))
(assert (<= (- w_65 w_70) 0.001))
(assert (>= (- w_65 w_70) (- 0.001)))
(assert (<= (- w_65 w_71) 0.001))
(assert (>= (- w_65 w_71) (- 0.001)))
(assert (<= (- w_65 w_72) 0.001))
(assert (>= (- w_65 w_72) (- 0.001)))
(assert (<= (- w_65 w_73) 0.001))
(assert (>= (- w_65 w_73) (- 0.001)))
(assert (<= (- w_65 w_74) 0.001))
(assert (>= (- w_65 w_74) (- 0.001)))
(assert (<= (- w_65 w_75) 0.001))
(assert (>= (- w_65 w_75) (- 0.001)))
(assert (<= (- w_65 w_76) 0.001))
(assert (>= (- w_65 w_76) (- 0.001)))
(assert (<= (- w_65 w_77) 0.001))
(assert (>= (- w_65 w_77) (- 0.001)))
(assert (<= (- w_65 w_79) 0.001))
(assert (>= (- w_65 w_79) (- 0.001)))
(assert (<= (- w_66 w_67) 0.001))
(assert (>= (- w_66 w_67) (- 0.001)))
(assert (<= (- w_66 w_68) 0.001))
(assert (>= (- w_66 w_68) (- 0.001)))
(assert (<= (- w_66 w_69) 0.001))
(assert (>= (- w_66 w_69) (- 0.001)))
(assert (<= (- w_66 w_70) 0.001))
(assert (>= (- w_66 w_70) (- 0.001)))
(assert (<= (- w_66 w_71) 0.001))
(assert (>= (- w_66 w_71) (- 0.001)))
(assert (<= (- w_66 w_72) 0.001))
(assert (>= (- w_66 w_72) (- 0.001)))
(assert (<= (- w_66 w_73) 0.001))
(assert (>= (- w_66 w_73) (- 0.001)))
(assert (<= (- w_66 w_74) 0.001))
(assert (>= (- w_66 w_74) (- 0.001)))
(assert (<= (- w_66 w_75) 0.001))
(assert (>= (- w_66 w_75) (- 0.001)))
(assert (<= (- w_66 w_76) 0.001))
(assert (>= (- w_66 w_76) (- 0.001)))
(assert (<= (- w_66 w_77) 0.001))
(assert (>= (- w_66 w_77) (- 0.001)))
(assert (<= (- w_66 w_79) 0.001))
(assert (>= (- w_66 w_79) (- 0.001)))
(assert (<= (- w_67 w_68) 0.001))
(assert (>= (- w_67 w_68) (- 0.001)))
(assert (<= (- w_67 w_69) 0.001))
(assert (>= (- w_67 w_69) (- 0.001)))
(assert (<= (- w_67 w_70) 0.001))
(assert (>= (- w_67 w_70) (- 0.001)))
(assert (<= (- w_67 w_71) 0.001))
(assert (>= (- w_67 w_71) (- 0.001)))
(assert (<= (- w_67 w_72) 0.001))
(assert (>= (- w_67 w_72) (- 0.001)))
(assert (<= (- w_67 w_73) 0.001))
(assert (>= (- w_67 w_73) (- 0.001)))
(assert (<= (- w_67 w_74) 0.001))
(assert (>= (- w_67 w_74) (- 0.001)))
(assert (<= (- w_67 w_75) 0.001))
(assert (>= (- w_67 w_75) (- 0.001)))
(assert (<= (- w_67 w_76) 0.001))
(assert (>= (- w_67 w_76) (- 0.001)))
(assert (<= (- w_67 w_77) 0.001))
(assert (>= (- w_67 w_77) (- 0.001)))
(assert (<= (- w_67 w_79) 0.001))
(assert (>= (- w_67 w_79) (- 0.001)))
(assert (<= (- w_68 w_69) 0.001))
(assert (>= (- w_68 w_69) (- 0.001)))
(assert (<= (- w_68 w_70) 0.001))
(assert (>= (- w_68 w_70) (- 0.001)))
(assert (<= (- w_68 w_71) 0.001))
(assert (>= (- w_68 w_71) (- 0.001)))
(assert (<= (- w_68 w_72) 0.001))
(assert (>= (- w_68 w_72) (- 0.001)))
(assert (<= (- w_68 w_73) 0.001))
(assert (>= (- w_68 w_73) (- 0.001)))
(assert (<= (- w_68 w_74) 0.001))
(assert (>= (- w_68 w_74) (- 0.001)))
(assert (<= (- w_68 w_75) 0.001))
(assert (>= (- w_68 w_75) (- 0.001)))
(assert (<= (- w_68 w_76) 0.001))
(assert (>= (- w_68 w_76) (- 0.001)))
(assert (<= (- w_68 w_77) 0.001))
(assert (>= (- w_68 w_77) (- 0.001)))
(assert (<= (- w_68 w_79) 0.001))
(assert (>= (- w_68 w_79) (- 0.001)))
(assert (<= (- w_69 w_70) 0.001))
(assert (>= (- w_69 w_70) (- 0.001)))
(assert (<= (- w_69 w_71) 0.001))
(assert (>= (- w_69 w_71) (- 0.001)))
(assert (<= (- w_69 w_72) 0.001))
(assert (>= (- w_69 w_72) (- 0.001)))
(assert (<= (- w_69 w_73) 0.001))
(assert (>= (- w_69 w_73) (- 0.001)))
(assert (<= (- w_69 w_74) 0.001))
(assert (>= (- w_69 w_74) (- 0.001)))
(assert (<= (- w_69 w_75) 0.001))
(assert (>= (- w_69 w_75) (- 0.001)))
(assert (<= (- w_69 w_76) 0.001))
(assert (>= (- w_69 w_76) (- 0.001)))
(assert (<= (- w_69 w_77) 0.001))
(assert (>= (- w_69 w_77) (- 0.001)))
(assert (<= (- w_69 w_79) 0.001))
(assert (>= (- w_69 w_79) (- 0.001)))
(assert (<= (- w_70 w_71) 0.001))
(assert (>= (- w_70 w_71) (- 0.001)))
(assert (<= (- w_70 w_72) 0.001))
(assert (>= (- w_70 w_72) (- 0.001)))
(assert (<= (- w_70 w_73) 0.001))
(assert (>= (- w_70 w_73) (- 0.001)))
(assert (<= (- w_70 w_74) 0.001))
(assert (>= (- w_70 w_74) (- 0.001)))
(assert (<= (- w_70 w_75) 0.001))
(assert (>= (- w_70 w_75) (- 0.001)))
(assert (<= (- w_70 w_76) 0.001))
(assert (>= (- w_70 w_76) (- 0.001)))
(assert (<= (- w_70 w_77) 0.001))
(assert (>= (- w_70 w_77) (- 0.001)))
(assert (<= (- w_70 w_79) 0.001))
(assert (>= (- w_70 w_79) (- 0.001)))
(assert (<= (- w_71 w_72) 0.001))
(assert (>= (- w_71 w_72) (- 0.001)))
(assert (<= (- w_71 w_73) 0.001))
(assert (>= (- w_71 w_73) (- 0.001)))
(assert (<= (- w_71 w_74) 0.001))
(assert (>= (- w_71 w_74) (- 0.001)))
(assert (<= (- w_71 w_75) 0.001))
(assert (>= (- w_71 w_75) (- 0.001)))
(assert (<= (- w_71 w_76) 0.001))
(assert (>= (- w_71 w_76) (- 0.001)))
(assert (<= (- w_71 w_77) 0.001))
(assert (>= (- w_71 w_77) (- 0.001)))
(assert (<= (- w_71 w_79) 0.001))
(assert (>= (- w_71 w_79) (- 0.001)))
(assert (<= (- w_72 w_73) 0.001))
(assert (>= (- w_72 w_73) (- 0.001)))
(assert (<= (- w_72 w_74) 0.001))
(assert (>= (- w_72 w_74) (- 0.001)))
(assert (<= (- w_72 w_75) 0.001))
(assert (>= (- w_72 w_75) (- 0.001)))
(assert (<= (- w_72 w_76) 0.001))
(assert (>= (- w_72 w_76) (- 0.001)))
(assert (<= (- w_72 w_77) 0.001))
(assert (>= (- w_72 w_77) (- 0.001)))
(assert (<= (- w_72 w_79) 0.001))
(assert (>= (- w_72 w_79) (- 0.001)))
(assert (<= (- w_73 w_74) 0.001))
(assert (>= (- w_73 w_74) (- 0.001)))
(assert (<= (- w_73 w_75) 0.001))
(assert (>= (- w_73 w_75) (- 0.001)))
(assert (<= (- w_73 w_76) 0.001))
(assert (>= (- w_73 w_76) (- 0.001)))
(assert (<= (- w_73 w_77) 0.001))
(assert (>= (- w_73 w_77) (- 0.001)))
(assert (<= (- w_73 w_79) 0.001))
(assert (>= (- w_73 w_79) (- 0.001)))
(assert (<= (- w_74 w_75) 0.001))
(assert (>= (- w_74 w_75) (- 0.001)))
(assert (<= (- w_74 w_76) 0.001))
(assert (>= (- w_74 w_76) (- 0.001)))
(assert (<= (- w_74 w_77) 0.001))
(assert (>= (- w_74 w_77) (- 0.001)))
(assert (<= (- w_74 w_79) 0.001))
(assert (>= (- w_74 w_79) (- 0.001)))
(assert (<= (- w_75 w_76) 0.001))
(assert (>= (- w_75 w_76) (- 0.001)))
(assert (<= (- w_75 w_77) 0.001))
(assert (>= (- w_75 w_77) (- 0.001)))
(assert (<= (- w_75 w_79) 0.001))
(assert (>= (- w_75 w_79) (- 0.001)))
(assert (<= (- w_76 w_77) 0.001))
(assert (>= (- w_76 w_77) (- 0.001)))
(assert (<= (- w_76 w_79) 0.001))
(assert (>= (- w_76 w_79) (- 0.001)))
(assert (<= (- w_77 w_79) 0.001))
(assert (>= (- w_77 w_79) (- 0.001)))

; --- dummy: zero-contribution sources have zero weight ---
(assert (<= w_0 0.001))
(assert (>= w_0 (- 0.001)))
(assert (<= w_2 0.001))
(assert (>= w_2 (- 0.001)))
(assert (<= w_3 0.001))
(assert (>= w_3 (- 0.001)))
(assert (<= w_4 0.001))
(assert (>= w_4 (- 0.001)))
(assert (<= w_11 0.001))
(assert (>= w_11 (- 0.001)))
(assert (<= w_13 0.001))
(assert (>= w_13 (- 0.001)))
(assert (<= w_19 0.001))
(assert (>= w_19 (- 0.001)))
(assert (<= w_20 0.001))
(assert (>= w_20 (- 0.001)))
(assert (<= w_21 0.001))
(assert (>= w_21 (- 0.001)))
(assert (<= w_22 0.001))
(assert (>= w_22 (- 0.001)))
(assert (<= w_37 0.001))
(assert (>= w_37 (- 0.001)))
(assert (<= w_38 0.001))
(assert (>= w_38 (- 0.001)))
(assert (<= w_39 0.001))
(assert (>= w_39 (- 0.001)))
(assert (<= w_40 0.001))
(assert (>= w_40 (- 0.001)))
(assert (<= w_42 0.001))
(assert (>= w_42 (- 0.001)))
(assert (<= w_43 0.001))
(assert (>= w_43 (- 0.001)))
(assert (<= w_44 0.001))
(assert (>= w_44 (- 0.001)))
(assert (<= w_45 0.001))
(assert (>= w_45 (- 0.001)))
(assert (<= w_46 0.001))
(assert (>= w_46 (- 0.001)))
(assert (<= w_47 0.001))
(assert (>= w_47 (- 0.001)))
(assert (<= w_48 0.001))
(assert (>= w_48 (- 0.001)))
(assert (<= w_49 0.001))
(assert (>= w_49 (- 0.001)))
(assert (<= w_50 0.001))
(assert (>= w_50 (- 0.001)))
(assert (<= w_51 0.001))
(assert (>= w_51 (- 0.001)))
(assert (<= w_52 0.001))
(assert (>= w_52 (- 0.001)))
(assert (<= w_53 0.001))
(assert (>= w_53 (- 0.001)))
(assert (<= w_54 0.001))
(assert (>= w_54 (- 0.001)))
(assert (<= w_55 0.001))
(assert (>= w_55 (- 0.001)))
(assert (<= w_56 0.001))
(assert (>= w_56 (- 0.001)))
(assert (<= w_57 0.001))
(assert (>= w_57 (- 0.001)))
(assert (<= w_58 0.001))
(assert (>= w_58 (- 0.001)))
(assert (<= w_59 0.001))
(assert (>= w_59 (- 0.001)))
(assert (<= w_60 0.001))
(assert (>= w_60 (- 0.001)))
(assert (<= w_61 0.001))
(assert (>= w_61 (- 0.001)))
(assert (<= w_62 0.001))
(assert (>= w_62 (- 0.001)))
(assert (<= w_63 0.001))
(assert (>= w_63 (- 0.001)))
(assert (<= w_64 0.001))
(assert (>= w_64 (- 0.001)))
(assert (<= w_65 0.001))
(assert (>= w_65 (- 0.001)))
(assert (<= w_66 0.001))
(assert (>= w_66 (- 0.001)))
(assert (<= w_67 0.001))
(assert (>= w_67 (- 0.001)))
(assert (<= w_68 0.001))
(assert (>= w_68 (- 0.001)))
(assert (<= w_69 0.001))
(assert (>= w_69 (- 0.001)))
(assert (<= w_70 0.001))
(assert (>= w_70 (- 0.001)))
(assert (<= w_71 0.001))
(assert (>= w_71 (- 0.001)))
(assert (<= w_72 0.001))
(assert (>= w_72 (- 0.001)))
(assert (<= w_73 0.001))
(assert (>= w_73 (- 0.001)))
(assert (<= w_74 0.001))
(assert (>= w_74 (- 0.001)))
(assert (<= w_75 0.001))
(assert (>= w_75 (- 0.001)))
(assert (<= w_76 0.001))
(assert (>= w_76 (- 0.001)))
(assert (<= w_77 0.001))
(assert (>= w_77 (- 0.001)))
(assert (<= w_78 0.001))
(assert (>= w_78 (- 0.001)))
(assert (<= w_79 0.001))
(assert (>= w_79 (- 0.001)))

(check-sat)
(get-model)
